NAME : N101P2.729.tour
COMMENT : Cost = 0_729
COMMENT : Found by LKH [Keld Helsgaun] Sun Sep 17 15:52:35 2017
TYPE : TOUR
DIMENSION : 101
TOUR_SECTION
1
49
79
98
27
48
57
76
14
24
16
18
15
94
31
8
28
43
35
85
52
40
36
80
81
38
67
47
89
3
95
75
83
54
65
11
100
88
41
45
77
55
96
93
60
99
26
19
20
78
66
64
13
86
53
82
63
61
91
92
90
97
25
70
101
74
72
7
4
46
84
29
22
50
5
39
59
87
58
73
2
68
6
62
10
44
42
51
37
56
71
9
33
23
17
32
69
12
30
21
34
-1
EOF
